(declare-fun var0 () String)
(declare-fun var1 () String)
(declare-fun var2 () String)
(declare-fun var3 () String)
(declare-fun var4 () String)
(declare-fun var5 () String)
(declare-fun var6 () String)
(declare-fun var7 () String)
(declare-fun var8 () String)
(declare-fun var9 () String)
(declare-fun var10 () String)
(declare-fun var11 () String)
(declare-fun var12 () String)
(declare-fun var13 () String)
(declare-fun var14 () String)
(declare-fun var15 () String)
(declare-fun var16 () String)
(declare-fun var17 () String)
(declare-fun var18 () String)
(declare-fun var19 () String)
(declare-fun var20 () String)
(declare-fun var21 () String)
(declare-fun var22 () String)
(declare-fun var23 () String)
(declare-fun var24 () String)
(declare-fun var25 () String)
(declare-fun var26 () String)
(declare-fun var27 () String)
(declare-fun var28 () String)
(declare-fun var29 () String)
(declare-fun var30 () String)
(declare-fun var31 () String)
(declare-fun var32 () String)
(declare-fun var33 () String)
(declare-fun var34 () String)
(declare-fun var35 () String)
(declare-fun var36 () String)
(declare-fun var37 () String)
(declare-fun var38 () String)
(declare-fun var39 () String)
(assert (= 47 (Length var0)))
(assert (= 12 (Length var1)))
(assert (= 45 (Length var2)))
(assert (= 58 (Length var3)))
(assert (= 54 (Length var4)))
(assert (= 46 (Length var5)))
(assert (= 5 (Length var6)))
(assert (= 46 (Length var7)))
(assert (= 36 (Length var8)))
(assert (= 58 (Length var9)))
(assert (= 96 (Length var10)))
(assert (= 74 (Length var11)))
(assert (= 18 (Length var12)))
(assert (= 52 (Length var13)))
(assert (= 35 (Length var14)))
(assert (= 37 (Length var15)))
(assert (= 38 (Length var16)))
(assert (= 90 (Length var17)))
(assert (= 35 (Length var18)))
(assert (= 97 (Length var19)))
(assert (= 15 (Length var20)))
(assert (= 75 (Length var21)))
(assert (= 65 (Length var22)))
(assert (= 3 (Length var23)))
(assert (= 38 (Length var24)))
(assert (= 41 (Length var25)))
(assert (= 14 (Length var26)))
(assert (= 37 (Length var27)))
(assert (= 96 (Length var28)))
(assert (= 80 (Length var29)))
(assert (= 23 (Length var30)))
(assert (= 94 (Length var31)))
(assert (= 89 (Length var32)))
(assert (= 43 (Length var33)))
(assert (= 7 (Length var34)))
(assert (= 28 (Length var35)))
(assert (= 82 (Length var36)))
(assert (= 30 (Length var37)))
(assert (= 52 (Length var38)))
(assert (= 83 (Length var39)))
(assert (= 21 (Length (Concat var34 var26))))
(assert (= 148 (Length (Concat var38 var10))))
(assert (= 38 (Length (Concat var20 var30))))
(assert (= 163 (Length (Concat var32 var11))))
(check-sat)